423 5
10 10 10 10 10 

0 0 0 0 0 0 4 2 14 26 38 
0 0 0 0 0 0 3 3 5 6 
5 0 0 0 0 1 1 4 
9 0 0 0 0 3 3 12 8 7 
10 0 0 0 0 2 3 12 9 7 
3 0 0 0 0 4 2 11 8 
8 0 0 0 0 2 2 11 10 
4 0 0 0 0 1 1 9 
7 0 0 0 0 5 1 10 
6 0 0 0 0 2 1 13 
4 0 0 0 0 3 1 13 
10 0 0 0 0 2 1 13 
0 0 0 0 0 0 1 50 
0 0 0 0 0 0 1 15 
10 0 0 1 0 0 2 19 16 
2 0 0 2 0 0 2 18 17 
1 0 0 3 0 0 2 22 20 
9 0 0 7 0 0 2 22 20 
10 0 0 1 0 0 2 24 21 
5 0 0 2 0 0 2 24 23 
7 0 0 3 0 0 1 22 
8 0 0 1 0 0 1 23 
5 0 0 3 0 0 1 25 
4 0 0 2 0 0 1 25 
0 0 0 0 0 0 1 50 
0 0 0 0 0 0 2 27 29 
7 0 1 0 0 0 2 33 28 
8 0 3 0 0 0 2 31 30 
9 0 1 0 0 0 2 31 30 
9 0 2 0 0 0 2 36 35 
3 0 2 0 0 0 1 32 
9 0 3 0 0 0 1 34 
7 0 5 0 0 0 1 34 
1 0 3 0 0 0 1 37 
10 0 3 0 0 0 1 37 
8 0 2 0 0 0 1 37 
0 0 0 0 0 0 1 50 
0 0 0 0 0 0 4 39 41 42 46 
3 0 0 0 1 0 2 45 40 
2 0 0 0 1 0 2 48 43 
5 0 0 0 2 0 2 48 43 
4 0 0 0 6 0 2 48 47 
3 0 0 0 3 0 1 44 
8 0 0 0 5 0 1 47 
7 0 0 0 3 0 1 48 
3 0 0 0 1 0 1 47 
7 0 0 0 2 0 1 49 
6 0 0 0 1 0 1 49 
0 0 0 0 0 0 1 50 
0 0 0 0 0 0 4 51 93 105 147 
0 0 0 0 0 0 2 52 55 
1 0 1 1 1 1 1 53 
6 0 5 1 2 3 2 56 54 
4 0 2 2 5 2 4 69 64 61 57 
4 0 3 1 3 2 3 69 61 58 
3 0 2 2 1 4 4 77 69 63 59 
4 0 3 4 4 3 1 58 
4 0 2 2 4 3 2 63 59 
5 0 2 4 1 1 2 72 60 
9 0 1 4 2 2 1 62 
6 0 4 1 2 3 1 63 
7 0 4 3 2 2 3 76 74 65 
6 0 4 4 3 5 3 76 74 65 
10 0 3 3 1 1 5 82 76 74 68 66 
3 0 1 2 1 1 3 82 68 66 
4 0 2 4 2 4 1 67 
6 0 2 3 3 4 4 91 86 79 70 
3 0 2 4 3 5 2 79 70 
2 0 2 3 4 1 4 86 82 76 75 
9 0 2 4 3 2 2 90 71 
6 0 3 3 3 3 2 84 73 
4 0 3 2 2 2 2 83 76 
9 0 2 1 2 1 1 75 
5 0 2 3 2 2 1 75 
10 0 1 1 2 2 1 78 
3 0 3 2 5 3 3 89 84 81 
1 0 4 2 2 3 3 89 84 81 
9 0 2 1 4 2 2 88 80 
2 0 1 1 4 2 2 84 81 
6 0 1 1 2 5 2 89 83 
2 0 3 3 2 3 2 88 85 
4 0 3 4 3 1 1 83 
3 0 2 3 1 1 1 85 
2 0 3 2 2 3 1 85 
10 0 3 2 3 1 1 87 
6 0 2 2 2 1 1 88 
1 0 4 1 1 4 1 92 
3 0 4 3 3 1 1 92 
4 0 4 4 1 5 1 92 
3 0 1 4 3 4 1 92 
8 0 2 3 4 2 1 92 
0 0 0 0 0 0 1 423 
0 0 0 0 0 0 2 94 95 
8 0 1 0 0 0 2 99 96 
3 0 8 0 0 0 1 96 
8 0 3 0 0 0 2 98 97 
8 0 3 0 0 0 3 103 101 100 
9 0 3 0 0 0 2 103 100 
3 0 2 0 0 0 2 103 102 
10 0 1 0 0 0 1 102 
3 0 1 0 0 0 1 102 
6 0 2 0 0 0 1 104 
2 0 1 0 0 0 1 104 
0 0 0 0 0 0 4 189 221 233 265 
0 0 0 0 0 0 2 106 114 
3 1 1 0 1 1 2 145 107 
1 3 1 0 2 3 2 111 108 
8 3 6 0 2 4 4 131 118 115 109 
6 1 1 0 2 2 1 110 
10 5 5 0 4 3 2 116 112 
5 2 5 0 3 1 4 135 131 117 116 
2 3 2 0 1 2 2 135 113 
10 3 3 0 3 2 3 134 129 117 
2 1 2 0 4 3 1 115 
7 4 1 0 3 1 1 116 
6 3 1 0 2 1 4 144 129 122 119 
3 3 2 0 1 2 3 144 122 119 
8 4 2 0 5 1 3 134 129 120 
4 1 2 0 4 5 2 143 120 
9 2 1 0 2 2 2 142 121 
8 4 5 0 1 3 3 141 133 123 
8 2 1 0 3 2 5 143 140 139 133 125 
1 2 3 0 1 2 2 140 124 
6 1 3 0 3 5 2 139 125 
9 4 4 0 5 3 1 126 
2 1 2 0 3 5 2 138 127 
5 1 1 0 2 3 1 128 
8 2 3 0 3 1 2 137 130 
2 2 5 0 3 4 1 130 
2 3 2 0 2 1 1 132 
6 3 6 0 3 7 1 134 
4 2 2 0 3 1 1 136 
2 1 3 0 2 4 1 136 
8 4 2 0 1 1 1 137 
9 2 4 0 2 1 1 137 
7 4 1 0 1 5 1 146 
1 3 2 0 2 2 1 146 
2 2 2 0 1 2 1 146 
7 2 2 0 3 2 1 146 
10 2 1 0 2 3 1 146 
4 2 1 0 5 2 1 146 
6 4 1 0 3 2 1 146 
9 1 3 0 3 2 1 146 
9 3 2 0 2 3 1 146 
3 4 4 0 2 1 1 146 
0 0 0 0 0 0 1 423 
0 0 0 0 0 0 2 148 150 
6 1 0 1 1 1 1 149 
1 2 0 3 2 2 2 152 151 
5 2 0 4 6 3 2 152 151 
8 1 0 2 3 3 4 163 156 155 154 
6 3 0 3 4 1 3 156 155 153 
5 1 0 2 2 1 1 154 
3 3 0 2 6 2 3 159 158 157 
8 2 0 2 2 3 2 160 158 
8 4 0 4 1 2 2 160 158 
1 2 0 5 3 2 2 164 160 
3 1 0 3 1 3 2 164 161 
4 3 0 2 1 4 2 164 161 
8 2 0 1 1 1 1 161 
6 2 0 1 3 3 1 162 
4 4 0 1 3 3 3 169 166 165 
7 2 0 2 4 3 2 166 164 
2 1 0 3 1 3 3 169 168 167 
5 4 0 1 3 2 3 172 170 168 
9 4 0 2 1 4 1 167 
2 2 0 3 2 3 3 173 172 170 
9 3 0 5 2 3 3 177 173 171 
2 3 0 2 1 2 2 172 171 
9 5 0 5 1 5 1 171 
10 4 0 1 2 3 2 176 174 
6 4 0 4 1 3 3 179 177 175 
5 1 0 4 3 3 2 178 176 
9 2 0 1 4 2 1 175 
6 2 0 3 1 4 2 180 178 
8 4 0 2 3 2 2 181 179 
10 1 0 1 4 3 2 180 178 
8 3 0 3 3 2 2 182 181 
10 2 0 2 1 1 2 182 180 
10 1 0 1 3 3 2 185 183 
6 5 0 5 3 2 2 185 183 
1 1 0 1 4 3 3 187 185 184 
4 2 0 3 1 2 2 187 184 
5 3 0 4 4 1 1 186 
4 2 0 2 2 1 1 186 
6 4 0 2 5 4 1 188 
6 2 0 2 2 2 1 188 
0 0 0 0 0 0 1 423 
0 0 0 0 0 0 3 190 191 197 
6 1 0 1 0 1 2 199 192 
8 2 0 1 0 3 2 199 192 
5 3 0 5 0 2 2 196 193 
9 2 0 1 0 2 2 198 194 
9 1 0 2 0 7 1 195 
5 1 0 1 0 2 3 205 202 200 
3 6 0 6 0 1 2 200 198 
3 4 0 3 0 1 2 199 198 
1 1 0 2 0 2 2 205 201 
9 1 0 1 0 3 3 207 205 203 
5 3 0 3 0 6 1 201 
8 4 0 3 0 4 3 209 207 203 
7 4 0 3 0 1 3 209 207 204 
2 1 0 1 0 2 1 204 
4 3 0 3 0 3 2 212 206 
10 4 0 1 0 3 2 209 206 
9 1 0 1 0 4 1 208 
8 3 0 4 0 2 1 208 
4 2 0 1 0 4 1 210 
3 1 0 4 0 1 1 210 
2 2 0 1 0 1 2 214 211 
9 1 0 1 0 2 5 219 218 217 215 213 
8 3 0 2 0 1 2 215 213 
4 3 0 4 0 3 1 216 
3 2 0 4 0 4 1 215 
1 4 0 3 0 3 1 220 
6 2 0 3 0 2 1 220 
7 3 0 4 0 1 1 220 
6 4 0 2 0 2 1 220 
7 3 0 4 0 2 1 220 
0 0 0 0 0 0 1 423 
0 0 0 0 0 0 3 222 224 226 
9 0 0 0 1 0 1 223 
1 0 0 0 3 0 2 227 225 
7 0 0 0 3 0 3 231 230 229 
9 0 0 0 3 0 2 229 228 
8 0 0 0 2 0 2 229 228 
4 0 0 0 4 0 2 231 229 
2 0 0 0 1 0 1 230 
1 0 0 0 3 0 1 232 
10 0 0 0 4 0 1 232 
5 0 0 0 1 0 1 232 
0 0 0 0 0 0 4 297 309 331 353 
0 0 0 0 0 0 3 234 235 237 
4 1 0 1 0 1 1 236 
4 1 0 4 0 2 1 236 
2 2 0 1 0 4 3 241 239 238 
4 3 0 2 0 3 2 241 239 
3 1 0 2 0 4 1 240 
9 2 0 4 0 2 2 243 242 
4 3 0 2 0 2 2 243 242 
9 6 0 3 0 5 2 245 243 
5 5 0 1 0 1 2 245 244 
5 2 0 3 0 3 1 244 
10 3 0 4 0 1 2 248 246 
9 3 0 1 0 1 1 246 
8 1 0 3 0 3 2 249 247 
10 2 0 4 0 5 2 251 250 
4 2 0 3 0 1 1 249 
4 2 0 3 0 2 2 255 252 
9 4 0 3 0 1 2 255 252 
3 2 0 1 0 2 2 255 252 
5 3 0 1 0 3 1 253 
5 3 0 1 0 2 1 254 
2 2 0 2 0 3 2 259 256 
8 5 0 2 0 5 1 256 
3 1 0 2 0 4 3 263 258 257 
6 3 0 2 0 1 2 262 261 
5 1 0 4 0 1 1 260 
1 1 0 4 0 3 1 260 
10 3 0 2 0 2 1 264 
7 2 0 3 0 3 1 264 
7 2 0 4 0 1 1 264 
3 4 0 3 0 4 1 264 
0 0 0 0 0 0 1 423 
0 0 0 0 0 0 5 266 292 293 294 295 
1 0 1 0 1 1 3 291 290 267 
7 0 1 0 5 3 3 289 288 268 
8 0 2 0 2 2 2 287 269 
7 0 3 0 2 3 1 270 
5 0 2 0 4 3 2 286 271 
10 0 4 0 2 2 1 272 
4 0 2 0 2 3 3 285 284 273 
9 0 2 0 4 2 2 283 274 
4 0 3 0 3 3 1 275 
8 0 2 0 2 3 1 276 
9 0 3 0 2 3 3 282 281 277 
6 0 3 0 3 2 1 278 
10 0 3 0 2 2 1 279 
4 0 5 0 3 3 1 280 
7 0 3 0 5 3 1 296 
3 0 1 0 2 3 1 296 
1 0 2 0 2 2 1 296 
2 0 2 0 3 3 1 296 
9 0 2 0 3 3 1 296 
2 0 4 0 1 2 1 296 
1 0 3 0 4 4 1 296 
7 0 3 0 2 1 1 296 
2 0 1 0 2 2 1 296 
6 0 2 0 1 2 1 296 
2 0 3 0 2 2 1 296 
3 0 4 0 3 3 1 296 
2 0 2 0 3 2 1 296 
4 0 1 0 1 1 1 296 
10 0 1 0 3 4 1 296 
6 0 5 0 1 3 1 296 
0 0 0 0 0 0 1 423 
0 0 0 0 0 0 2 298 300 
1 1 0 0 0 0 2 301 299 
9 5 0 0 0 0 2 304 303 
10 3 0 0 0 0 1 302 
3 2 0 0 0 0 2 307 304 
5 4 0 0 0 0 1 303 
8 1 0 0 0 0 2 307 305 
5 2 0 0 0 0 1 305 
8 2 0 0 0 0 1 306 
9 3 0 0 0 0 1 308 
7 2 0 0 0 0 1 308 
0 0 0 0 0 0 4 375 387 399 411 
0 0 0 0 0 0 2 310 311 
7 0 0 0 1 1 2 314 313 
4 0 0 0 4 2 2 316 312 
7 0 0 0 1 6 2 322 314 
4 0 0 0 4 1 3 319 317 316 
2 0 0 0 3 1 2 319 315 
10 0 0 0 1 2 2 321 317 
10 0 0 0 2 1 3 323 322 320 
10 0 0 0 2 3 1 318 
1 0 0 0 1 2 2 323 320 
3 0 0 0 1 3 2 323 320 
8 0 0 0 3 2 3 326 325 324 
9 0 0 0 6 3 2 329 324 
9 0 0 0 1 1 1 324 
2 0 0 0 3 2 2 329 328 
5 0 0 0 3 4 1 327 
10 0 0 0 4 1 1 327 
2 0 0 0 3 4 1 327 
3 0 0 0 4 6 1 328 
8 0 0 0 1 2 1 330 
6 0 0 0 2 3 1 330 
0 0 0 0 0 0 1 423 
0 0 0 0 0 0 4 332 349 350 351 
6 0 0 1 0 1 1 333 
10 0 0 3 0 5 2 348 334 
7 0 0 1 0 3 3 347 346 335 
10 0 0 1 0 2 2 345 336 
9 0 0 3 0 3 1 337 
5 0 0 2 0 3 2 344 338 
10 0 0 6 0 3 3 343 342 339 
3 0 0 1 0 3 1 340 
2 0 0 3 0 1 1 341 
9 0 0 4 0 2 1 352 
7 0 0 2 0 1 1 352 
10 0 0 2 0 2 1 352 
6 0 0 2 0 1 1 352 
4 0 0 2 0 5 1 352 
1 0 0 3 0 2 1 352 
6 0 0 2 0 3 1 352 
2 0 0 3 0 1 1 352 
5 0 0 5 0 5 1 352 
2 0 0 2 0 1 1 352 
10 0 0 2 0 3 1 352 
0 0 0 0 0 0 1 423 
0 0 0 0 0 0 5 354 370 371 372 373 
5 0 0 0 1 1 4 369 368 367 355 
7 0 0 0 4 1 1 356 
6 0 0 0 1 2 3 366 365 357 
1 0 0 0 1 2 1 358 
9 0 0 0 1 2 2 364 359 
1 0 0 0 1 2 1 360 
2 0 0 0 2 4 1 361 
3 0 0 0 2 3 1 362 
7 0 0 0 4 3 1 363 
8 0 0 0 5 3 1 374 
3 0 0 0 6 3 1 374 
2 0 0 0 2 2 1 374 
10 0 0 0 2 2 1 374 
6 0 0 0 3 3 1 374 
9 0 0 0 3 1 1 374 
8 0 0 0 2 4 1 374 
1 0 0 0 2 2 1 374 
8 0 0 0 2 3 1 374 
4 0 0 0 3 4 1 374 
4 0 0 0 3 3 1 374 
0 0 0 0 0 0 1 423 
0 0 0 0 0 0 2 376 379 
5 0 0 0 0 1 3 385 384 377 
9 0 0 0 0 4 1 378 
3 0 0 0 0 2 2 383 380 
5 0 0 0 0 3 2 383 380 
8 0 0 0 0 2 2 382 381 
3 0 0 0 0 2 1 386 
4 0 0 0 0 1 1 386 
8 0 0 0 0 5 1 386 
6 0 0 0 0 3 1 386 
7 0 0 0 0 2 1 386 
0 0 0 0 0 0 1 423 
0 0 0 0 0 0 2 388 392 
7 0 1 0 0 0 3 397 391 389 
3 0 3 0 0 0 2 394 390 
7 0 4 0 0 0 2 396 393 
9 0 3 0 0 0 2 396 393 
1 0 4 0 0 0 2 397 395 
9 0 1 0 0 0 1 395 
8 0 3 0 0 0 1 396 
3 0 2 0 0 0 1 398 
10 0 3 0 0 0 1 398 
9 0 1 0 0 0 1 398 
0 0 0 0 0 0 1 423 
0 0 0 0 0 0 2 400 402 
6 0 0 0 0 1 3 405 403 401 
10 0 0 0 0 2 3 409 407 406 
7 0 0 0 0 4 3 409 407 406 
9 0 0 0 0 5 1 404 
4 0 0 0 0 1 2 407 406 
5 0 0 0 0 2 2 409 407 
4 0 0 0 0 3 1 408 
4 0 0 0 0 1 1 410 
5 0 0 0 0 3 1 410 
7 0 0 0 0 3 1 410 
0 0 0 0 0 0 1 423 
0 0 0 0 0 0 5 412 414 419 420 421 
4 0 0 1 0 0 2 417 413 
5 0 0 3 0 0 1 415 
10 0 0 2 0 0 1 415 
6 0 0 3 0 0 1 416 
10 0 0 3 0 0 1 418 
5 0 0 2 0 0 1 418 
9 0 0 5 0 0 1 422 
8 0 0 2 0 0 1 422 
10 0 0 2 0 0 1 422 
1 0 0 2 0 0 1 422 
0 0 0 0 0 0 1 423 
0 0 0 0 0 0 0 
